switch_Floorplanner/model_gurobi.lp
\ LP format - for model browsing. Use MPS format to capture full model detail.
Minimize
  y
Subject To
 c1: x1 + 3 r1 <= 15
 c2: - y - 3 r1 + y1 <= -7
 c3: x2 + 16 r2 <= 18
 c4: - y - 16 r2 + y2 <= -17
 c5: x3 + 2 r3 <= 16
 c6: - y - 2 r3 + y3 <= -5
 c7: x4 + 4 r4 <= 16
 c8: - y - 4 r4 + y4 <= -7
 c9: x5 + 16 r5 <= 18
 c10: - y - 16 r5 + y5 <= -17
 c11: x1 + 3 r1 - 53 p12 - 53 q12 - x2 <= -4
 c12: - 3 r1 + y1 - 53 p12 + 53 q12 - y2 <= 46
 c13: x1 - 53 p12 + 53 q12 - x2 + 16 r2 >= -52
 c14: y1 - 53 p12 - 53 q12 + 16 r2 - y2 >= -89
 c15: x1 + 3 r1 - 53 p13 - 53 q13 - x3 <= -4
 c16: - 3 r1 + y1 - 53 p13 + 53 q13 - y3 <= 46
 c17: x1 - 53 p13 + 53 q13 - x3 + 2 r3 >= -50
 c18: y1 - 53 p13 - 53 q13 + 2 r3 - y3 >= -101
 c19: x1 + 3 r1 - 53 p14 - 53 q14 - x4 <= -4
 c20: - 3 r1 + y1 - 53 p14 + 53 q14 - y4 <= 46
 c21: x1 - 53 p14 + 53 q14 - x4 + 4 r4 >= -50
 c22: y1 - 53 p14 - 53 q14 + 4 r4 - y4 >= -99
 c23: x1 + 3 r1 - 53 p15 - 53 q15 - x5 <= -4
 c24: - 3 r1 + y1 - 53 p15 + 53 q15 - y5 <= 46
 c25: x1 - 53 p15 + 53 q15 - x5 + 16 r5 >= -52
 c26: y1 - 53 p15 - 53 q15 + 16 r5 - y5 >= -89
 c27: x2 + 16 r2 - 53 p23 - 53 q23 - x3 <= -1
 c28: - 16 r2 + y2 - 53 p23 + 53 q23 - y3 <= 36
 c29: x2 - 53 p23 + 53 q23 - x3 + 2 r3 >= -50
 c30: y2 - 53 p23 - 53 q23 + 2 r3 - y3 >= -101
 c31: x2 + 16 r2 - 53 p24 - 53 q24 - x4 <= -1
 c32: - 16 r2 + y2 - 53 p24 + 53 q24 - y4 <= 36
 c33: x2 - 53 p24 + 53 q24 - x4 + 4 r4 >= -50
 c34: y2 - 53 p24 - 53 q24 + 4 r4 - y4 >= -99
 c35: x2 + 16 r2 - 53 p25 - 53 q25 - x5 <= -1
 c36: - 16 r2 + y2 - 53 p25 + 53 q25 - y5 <= 36
 c37: x2 - 53 p25 + 53 q25 - x5 + 16 r5 >= -52
 c38: y2 - 53 p25 - 53 q25 + 16 r5 - y5 >= -89
 c39: x3 + 2 r3 - 53 p34 - 53 q34 - x4 <= -3
 c40: - 2 r3 + y3 - 53 p34 + 53 q34 - y4 <= 48
 c41: x3 - 53 p34 + 53 q34 - x4 + 4 r4 >= -50
 c42: y3 - 53 p34 - 53 q34 + 4 r4 - y4 >= -99
 c43: x3 + 2 r3 - 53 p35 - 53 q35 - x5 <= -3
 c44: - 2 r3 + y3 - 53 p35 + 53 q35 - y5 <= 48
 c45: x3 - 53 p35 + 53 q35 - x5 + 16 r5 >= -52
 c46: y3 - 53 p35 - 53 q35 + 16 r5 - y5 >= -89
 c47: x4 + 4 r4 - 53 p45 - 53 q45 - x5 <= -3
 c48: - 4 r4 + y4 - 53 p45 + 53 q45 - y5 <= 46
 c49: x4 - 53 p45 + 53 q45 - x5 + 16 r5 >= -52
 c50: y4 - 53 p45 - 53 q45 + 16 r5 - y5 >= -89
Bounds
 r1 <= 1
 p12 <= 1
 q12 <= 1
 p13 <= 1
 q13 <= 1
 p14 <= 1
 q14 <= 1
 p15 <= 1
 q15 <= 1
 r2 <= 1
 p23 <= 1
 q23 <= 1
 p24 <= 1
 q24 <= 1
 p25 <= 1
 q25 <= 1
 r3 <= 1
 p34 <= 1
 q34 <= 1
 p35 <= 1
 q35 <= 1
 r4 <= 1
 p45 <= 1
 q45 <= 1
 r5 <= 1
Generals
 x1 r1 y1 p12 q12 p13 q13 p14 q14 p15 q15 x2 r2 y2 p23 q23 p24 q24 p25 q25
 x3 r3 y3 p34 q34 p35 q35 x4 r4 y4 p45 q45 x5 r5 y5
End
