switch_Floorplanner/model_gurobi.sol
# Objective value = 32
y 32
x1 0
r1 0
y1 0
p12 0
q12 0
p13 0
q13 0
x2 4
r2 0
y2 12
p23 1
q23 0
x3 1
r3 0
y3 12
